(set-info :smt-lib-version 2.6)
(set-logic UF)
(set-info :source |Benchmarks from the paper: "Extending Sledgehammer with SMT Solvers" by Jasmin Blanchette, Sascha Bohme, and Lawrence C. Paulson, CADE 2011.  Translated to SMT2 by Andrew Reynolds and Morgan Deters.|)
(set-info :category "industrial")
(set-info :status unknown)
(declare-sort S1 0)
(declare-sort S2 0)
(declare-sort S3 0)
(declare-sort S4 0)
(declare-sort S5 0)
(declare-sort S6 0)
(declare-sort S7 0)
(declare-sort S8 0)
(declare-sort S9 0)
(declare-sort S10 0)
(declare-sort S11 0)
(declare-sort S12 0)
(declare-sort S13 0)
(declare-sort S14 0)
(declare-sort S15 0)
(declare-sort S16 0)
(declare-sort S17 0)
(declare-sort S18 0)
(declare-sort S19 0)
(declare-sort S20 0)
(declare-sort S21 0)
(declare-sort S22 0)
(declare-sort S23 0)
(declare-sort S24 0)
(declare-sort S25 0)
(declare-sort S26 0)
(declare-sort S27 0)
(declare-sort S28 0)
(declare-sort S29 0)
(declare-sort S30 0)
(declare-sort S31 0)
(declare-sort S32 0)
(declare-sort S33 0)
(declare-sort S34 0)
(declare-sort S35 0)
(declare-sort S36 0)
(declare-sort S37 0)
(declare-sort S38 0)
(declare-sort S39 0)
(declare-sort S40 0)
(declare-sort S41 0)
(declare-sort S42 0)
(declare-sort S43 0)
(declare-sort S44 0)
(declare-sort S45 0)
(declare-sort S46 0)
(declare-sort S47 0)
(declare-sort S48 0)
(declare-sort S49 0)
(declare-sort S50 0)
(declare-sort S51 0)
(declare-sort S52 0)
(declare-sort S53 0)
(declare-sort S54 0)
(declare-sort S55 0)
(declare-sort S56 0)
(declare-sort S57 0)
(declare-sort S58 0)
(declare-sort S59 0)
(declare-fun f1 () S1)
(declare-fun f2 () S1)
(declare-fun f3 (S3 S2) S1)
(declare-fun f4 () S3)
(declare-fun f5 (S5 S4) S1)
(declare-fun f6 () S5)
(declare-fun f7 (S7 S6) S1)
(declare-fun f8 () S7)
(declare-fun f9 (S9 S8) S1)
(declare-fun f10 () S9)
(declare-fun f11 (S11 S10) S1)
(declare-fun f12 () S11)
(declare-fun f13 (S10 S11) S1)
(declare-fun f14 () S10)
(declare-fun f15 (S12 S3) S11)
(declare-fun f16 (S13) S12)
(declare-fun f17 () S13)
(declare-fun f18 () S3)
(declare-fun f19 () S4)
(declare-fun f20 (S14 S4) S4)
(declare-fun f21 (S15 S10) S14)
(declare-fun f22 () S15)
(declare-fun f23 (S13 S2) S10)
(declare-fun f24 () S2)
(declare-fun f25 (S16 S4) S14)
(declare-fun f26 () S16)
(declare-fun f27 (S17 S10) S4)
(declare-fun f28 () S17)
(declare-fun f29 (S18 S2) S4)
(declare-fun f30 () S18)
(declare-fun f31 () S2)
(declare-fun f32 () S10)
(declare-fun f33 (S6 S7) S1)
(declare-fun f34 (S19 S4) S6)
(declare-fun f35 (S20 S2) S19)
(declare-fun f36 (S21 S2) S20)
(declare-fun f37 () S21)
(declare-fun f38 () S2)
(declare-fun f39 () S4)
(declare-fun f40 (S8) S7)
(declare-fun f41 () S8)
(declare-fun f42 (S8 S9) S1)
(declare-fun f43 () S9)
(declare-fun f44 () S11)
(declare-fun f45 () S7)
(declare-fun f46 () S9)
(declare-fun f47 () S5)
(declare-fun f48 (S4 S5) S1)
(declare-fun f49 (S2 S3) S1)
(declare-fun f50 (S22 S11) S5)
(declare-fun f51 (S17) S22)
(declare-fun f52 (S23 S4) S10)
(declare-fun f53 (S24 S5) S11)
(declare-fun f54 (S23) S24)
(declare-fun f55 (S25 S8) S10)
(declare-fun f56 (S26 S9) S11)
(declare-fun f57 (S25) S26)
(declare-fun f58 (S27 S6) S10)
(declare-fun f59 (S28 S7) S11)
(declare-fun f60 (S27) S28)
(declare-fun f61 (S29 S10) S10)
(declare-fun f62 (S30 S11) S11)
(declare-fun f63 (S29) S30)
(declare-fun f64 (S31 S5) S7)
(declare-fun f65 (S19) S31)
(declare-fun f66 (S32 S8) S6)
(declare-fun f67 (S33 S9) S7)
(declare-fun f68 (S32) S33)
(declare-fun f69 (S34 S6) S6)
(declare-fun f70 (S35 S7) S7)
(declare-fun f71 (S34) S35)
(declare-fun f72 (S36 S10) S6)
(declare-fun f73 (S37 S11) S7)
(declare-fun f74 (S36) S37)
(declare-fun f75 (S38 S4) S8)
(declare-fun f76 (S39 S5) S9)
(declare-fun f77 (S38) S39)
(declare-fun f78 (S40 S8) S8)
(declare-fun f79 (S41 S9) S9)
(declare-fun f80 (S40) S41)
(declare-fun f81 (S42 S6) S8)
(declare-fun f82 (S43 S7) S9)
(declare-fun f83 (S42) S43)
(declare-fun f84 (S44 S10) S8)
(declare-fun f85 (S45 S11) S9)
(declare-fun f86 (S44) S45)
(declare-fun f87 (S46 S4) S2)
(declare-fun f88 (S47 S5) S3)
(declare-fun f89 (S46) S47)
(declare-fun f90 (S48 S8) S2)
(declare-fun f91 (S49 S9) S3)
(declare-fun f92 (S48) S49)
(declare-fun f93 (S50 S6) S2)
(declare-fun f94 (S51 S7) S3)
(declare-fun f95 (S50) S51)
(declare-fun f96 (S52 S10) S2)
(declare-fun f97 (S53 S11) S3)
(declare-fun f98 (S52) S53)
(declare-fun f99 (S54 S5) S5)
(declare-fun f100 (S14) S54)
(declare-fun f101 (S55 S8) S4)
(declare-fun f102 (S56 S9) S5)
(declare-fun f103 (S55) S56)
(declare-fun f104 (S57 S6) S4)
(declare-fun f105 (S58 S7) S5)
(declare-fun f106 (S57) S58)
(declare-fun f107 (S3) S3)
(declare-fun f108 (S11) S11)
(declare-fun f109 (S7) S7)
(declare-fun f110 (S9) S9)
(declare-fun f111 (S5) S5)
(declare-fun f112 () S1)
(declare-fun f113 (S8) S5)
(declare-fun f114 (S2) S5)
(declare-fun f115 () S17)
(declare-fun f116 (S59 S6) S40)
(declare-fun f117 () S59)
(declare-fun f118 (S5) S5)
(declare-fun f119 () S11)
(assert (not (= f1 f2)))
(assert (forall ((?v0 S2)) (= (= (f3 f4 ?v0) f1) true)))
(assert (forall ((?v0 S4)) (= (= (f5 f6 ?v0) f1) true)))
(assert (forall ((?v0 S6)) (= (= (f7 f8 ?v0) f1) true)))
(assert (forall ((?v0 S8)) (= (= (f9 f10 ?v0) f1) true)))
(assert (forall ((?v0 S10)) (= (= (f11 f12 ?v0) f1) true)))
(assert (not (and (not (= (f13 f14 (f15 (f16 f17) f18)) f1)) (and (= f19 (f20 (f21 f22 (f23 f17 f24)) (f20 (f25 f26 (f27 f28 f14)) (f29 f30 f31)))) (= f32 (f23 f17 f31))))))
(assert (= (f33 (f34 (f35 (f36 f37 f38) f31) (f20 (f21 f22 f32) (f20 (f25 f26 f39) (f20 (f25 f26 (f29 f30 f24)) (f20 (f25 f26 (f27 f28 f14)) f19))))) (f40 f41)) f1))
(assert (= (f42 f41 f43) f1))
(assert (forall ((?v0 S2)) (= (f3 f18 ?v0) f1)))
(assert (forall ((?v0 S10)) (= (f11 f44 ?v0) f1)))
(assert (forall ((?v0 S6)) (= (f7 f45 ?v0) f1)))
(assert (forall ((?v0 S8)) (= (f9 f46 ?v0) f1)))
(assert (forall ((?v0 S4)) (= (f5 f47 ?v0) f1)))
(assert (forall ((?v0 S4)) (= (f48 ?v0 f47) f1)))
(assert (forall ((?v0 S2)) (= (f49 ?v0 f18) f1)))
(assert (forall ((?v0 S8)) (= (f42 ?v0 f46) f1)))
(assert (forall ((?v0 S6)) (= (f33 ?v0 f45) f1)))
(assert (forall ((?v0 S10)) (= (f13 ?v0 f44) f1)))
(assert (forall ((?v0 S4)) (= (= (f48 ?v0 f47) f1) true)))
(assert (forall ((?v0 S2)) (= (= (f49 ?v0 f18) f1) true)))
(assert (forall ((?v0 S8)) (= (= (f42 ?v0 f46) f1) true)))
(assert (forall ((?v0 S6)) (= (= (f33 ?v0 f45) f1) true)))
(assert (forall ((?v0 S10)) (= (= (f13 ?v0 f44) f1) true)))
(assert (forall ((?v0 S4) (?v1 S17) (?v2 S10) (?v3 S11)) (=> (= ?v0 (f27 ?v1 ?v2)) (=> (= (f13 ?v2 ?v3) f1) (= (f48 ?v0 (f50 (f51 ?v1) ?v3)) f1)))))
(assert (forall ((?v0 S10) (?v1 S13) (?v2 S2) (?v3 S3)) (=> (= ?v0 (f23 ?v1 ?v2)) (=> (= (f49 ?v2 ?v3) f1) (= (f13 ?v0 (f15 (f16 ?v1) ?v3)) f1)))))
(assert (forall ((?v0 S10) (?v1 S23) (?v2 S4) (?v3 S5)) (=> (= ?v0 (f52 ?v1 ?v2)) (=> (= (f48 ?v2 ?v3) f1) (= (f13 ?v0 (f53 (f54 ?v1) ?v3)) f1)))))
(assert (forall ((?v0 S10) (?v1 S25) (?v2 S8) (?v3 S9)) (=> (= ?v0 (f55 ?v1 ?v2)) (=> (= (f42 ?v2 ?v3) f1) (= (f13 ?v0 (f56 (f57 ?v1) ?v3)) f1)))))
(assert (forall ((?v0 S10) (?v1 S27) (?v2 S6) (?v3 S7)) (=> (= ?v0 (f58 ?v1 ?v2)) (=> (= (f33 ?v2 ?v3) f1) (= (f13 ?v0 (f59 (f60 ?v1) ?v3)) f1)))))
(assert (forall ((?v0 S10) (?v1 S29) (?v2 S10) (?v3 S11)) (=> (= ?v0 (f61 ?v1 ?v2)) (=> (= (f13 ?v2 ?v3) f1) (= (f13 ?v0 (f62 (f63 ?v1) ?v3)) f1)))))
(assert (forall ((?v0 S6) (?v1 S19) (?v2 S4) (?v3 S5)) (=> (= ?v0 (f34 ?v1 ?v2)) (=> (= (f48 ?v2 ?v3) f1) (= (f33 ?v0 (f64 (f65 ?v1) ?v3)) f1)))))
(assert (forall ((?v0 S6) (?v1 S32) (?v2 S8) (?v3 S9)) (=> (= ?v0 (f66 ?v1 ?v2)) (=> (= (f42 ?v2 ?v3) f1) (= (f33 ?v0 (f67 (f68 ?v1) ?v3)) f1)))))
(assert (forall ((?v0 S6) (?v1 S34) (?v2 S6) (?v3 S7)) (=> (= ?v0 (f69 ?v1 ?v2)) (=> (= (f33 ?v2 ?v3) f1) (= (f33 ?v0 (f70 (f71 ?v1) ?v3)) f1)))))
(assert (forall ((?v0 S6) (?v1 S36) (?v2 S10) (?v3 S11)) (=> (= ?v0 (f72 ?v1 ?v2)) (=> (= (f13 ?v2 ?v3) f1) (= (f33 ?v0 (f73 (f74 ?v1) ?v3)) f1)))))
(assert (forall ((?v0 S8) (?v1 S38) (?v2 S4) (?v3 S5)) (=> (= ?v0 (f75 ?v1 ?v2)) (=> (= (f48 ?v2 ?v3) f1) (= (f42 ?v0 (f76 (f77 ?v1) ?v3)) f1)))))
(assert (forall ((?v0 S8) (?v1 S40) (?v2 S8) (?v3 S9)) (=> (= ?v0 (f78 ?v1 ?v2)) (=> (= (f42 ?v2 ?v3) f1) (= (f42 ?v0 (f79 (f80 ?v1) ?v3)) f1)))))
(assert (forall ((?v0 S8) (?v1 S42) (?v2 S6) (?v3 S7)) (=> (= ?v0 (f81 ?v1 ?v2)) (=> (= (f33 ?v2 ?v3) f1) (= (f42 ?v0 (f82 (f83 ?v1) ?v3)) f1)))))
(assert (forall ((?v0 S8) (?v1 S44) (?v2 S10) (?v3 S11)) (=> (= ?v0 (f84 ?v1 ?v2)) (=> (= (f13 ?v2 ?v3) f1) (= (f42 ?v0 (f85 (f86 ?v1) ?v3)) f1)))))
(assert (forall ((?v0 S2) (?v1 S46) (?v2 S4) (?v3 S5)) (=> (= ?v0 (f87 ?v1 ?v2)) (=> (= (f48 ?v2 ?v3) f1) (= (f49 ?v0 (f88 (f89 ?v1) ?v3)) f1)))))
(assert (forall ((?v0 S2) (?v1 S48) (?v2 S8) (?v3 S9)) (=> (= ?v0 (f90 ?v1 ?v2)) (=> (= (f42 ?v2 ?v3) f1) (= (f49 ?v0 (f91 (f92 ?v1) ?v3)) f1)))))
(assert (forall ((?v0 S2) (?v1 S50) (?v2 S6) (?v3 S7)) (=> (= ?v0 (f93 ?v1 ?v2)) (=> (= (f33 ?v2 ?v3) f1) (= (f49 ?v0 (f94 (f95 ?v1) ?v3)) f1)))))
(assert (forall ((?v0 S2) (?v1 S52) (?v2 S10) (?v3 S11)) (=> (= ?v0 (f96 ?v1 ?v2)) (=> (= (f13 ?v2 ?v3) f1) (= (f49 ?v0 (f97 (f98 ?v1) ?v3)) f1)))))
(assert (forall ((?v0 S4) (?v1 S14) (?v2 S4) (?v3 S5)) (=> (= ?v0 (f20 ?v1 ?v2)) (=> (= (f48 ?v2 ?v3) f1) (= (f48 ?v0 (f99 (f100 ?v1) ?v3)) f1)))))
(assert (forall ((?v0 S4) (?v1 S55) (?v2 S8) (?v3 S9)) (=> (= ?v0 (f101 ?v1 ?v2)) (=> (= (f42 ?v2 ?v3) f1) (= (f48 ?v0 (f102 (f103 ?v1) ?v3)) f1)))))
(assert (forall ((?v0 S4) (?v1 S57) (?v2 S6) (?v3 S7)) (=> (= ?v0 (f104 ?v1 ?v2)) (=> (= (f33 ?v2 ?v3) f1) (= (f48 ?v0 (f105 (f106 ?v1) ?v3)) f1)))))
(assert (forall ((?v0 S2) (?v1 S3)) (= (= (f13 (f23 f17 ?v0) (f15 (f16 f17) ?v1)) f1) (= (f49 ?v0 ?v1) f1))))
(assert (forall ((?v0 S2) (?v1 S10) (?v2 S4)) (not (= (f29 f30 ?v0) (f20 (f21 f22 ?v1) ?v2)))))
(assert (forall ((?v0 S10) (?v1 S4) (?v2 S2)) (not (= (f20 (f21 f22 ?v0) ?v1) (f29 f30 ?v2)))))
(assert (forall ((?v0 S2) (?v1 S4) (?v2 S4)) (not (= (f29 f30 ?v0) (f20 (f25 f26 ?v1) ?v2)))))
(assert (forall ((?v0 S4) (?v1 S4) (?v2 S2)) (not (= (f20 (f25 f26 ?v0) ?v1) (f29 f30 ?v2)))))
(assert (forall ((?v0 S10) (?v1 S2)) (not (= (f27 f28 ?v0) (f29 f30 ?v1)))))
(assert (forall ((?v0 S2) (?v1 S10)) (not (= (f29 f30 ?v0) (f27 f28 ?v1)))))
(assert (forall ((?v0 S10) (?v1 S4) (?v2 S4) (?v3 S4)) (not (= (f20 (f21 f22 ?v0) ?v1) (f20 (f25 f26 ?v2) ?v3)))))
(assert (forall ((?v0 S10) (?v1 S11)) (= (= (f48 (f27 f28 ?v0) (f50 (f51 f28) ?v1)) f1) (= (f13 ?v0 ?v1) f1))))
(assert (forall ((?v0 S10) (?v1 S4) (?v2 S11)) (not (= (f48 (f20 (f21 f22 ?v0) ?v1) (f50 (f51 f28) ?v2)) f1))))
(assert (forall ((?v0 S10) (?v1 S11) (?v2 S4) (?v3 S17)) (=> (= (f13 ?v0 ?v1) f1) (=> (= ?v2 (f27 ?v3 ?v0)) (= (f48 ?v2 (f50 (f51 ?v3) ?v1)) f1)))))
(assert (forall ((?v0 S2) (?v1 S3) (?v2 S10) (?v3 S13)) (=> (= (f49 ?v0 ?v1) f1) (=> (= ?v2 (f23 ?v3 ?v0)) (= (f13 ?v2 (f15 (f16 ?v3) ?v1)) f1)))))
(assert (forall ((?v0 S4) (?v1 S5) (?v2 S10) (?v3 S23)) (=> (= (f48 ?v0 ?v1) f1) (=> (= ?v2 (f52 ?v3 ?v0)) (= (f13 ?v2 (f53 (f54 ?v3) ?v1)) f1)))))
(assert (forall ((?v0 S8) (?v1 S9) (?v2 S10) (?v3 S25)) (=> (= (f42 ?v0 ?v1) f1) (=> (= ?v2 (f55 ?v3 ?v0)) (= (f13 ?v2 (f56 (f57 ?v3) ?v1)) f1)))))
(assert (forall ((?v0 S6) (?v1 S7) (?v2 S10) (?v3 S27)) (=> (= (f33 ?v0 ?v1) f1) (=> (= ?v2 (f58 ?v3 ?v0)) (= (f13 ?v2 (f59 (f60 ?v3) ?v1)) f1)))))
(assert (forall ((?v0 S10) (?v1 S11) (?v2 S10) (?v3 S29)) (=> (= (f13 ?v0 ?v1) f1) (=> (= ?v2 (f61 ?v3 ?v0)) (= (f13 ?v2 (f62 (f63 ?v3) ?v1)) f1)))))
(assert (forall ((?v0 S4) (?v1 S5) (?v2 S6) (?v3 S19)) (=> (= (f48 ?v0 ?v1) f1) (=> (= ?v2 (f34 ?v3 ?v0)) (= (f33 ?v2 (f64 (f65 ?v3) ?v1)) f1)))))
(assert (forall ((?v0 S8) (?v1 S9) (?v2 S6) (?v3 S32)) (=> (= (f42 ?v0 ?v1) f1) (=> (= ?v2 (f66 ?v3 ?v0)) (= (f33 ?v2 (f67 (f68 ?v3) ?v1)) f1)))))
(assert (forall ((?v0 S6) (?v1 S7) (?v2 S6) (?v3 S34)) (=> (= (f33 ?v0 ?v1) f1) (=> (= ?v2 (f69 ?v3 ?v0)) (= (f33 ?v2 (f70 (f71 ?v3) ?v1)) f1)))))
(assert (forall ((?v0 S10) (?v1 S11) (?v2 S6) (?v3 S36)) (=> (= (f13 ?v0 ?v1) f1) (=> (= ?v2 (f72 ?v3 ?v0)) (= (f33 ?v2 (f73 (f74 ?v3) ?v1)) f1)))))
(assert (forall ((?v0 S4) (?v1 S5) (?v2 S8) (?v3 S38)) (=> (= (f48 ?v0 ?v1) f1) (=> (= ?v2 (f75 ?v3 ?v0)) (= (f42 ?v2 (f76 (f77 ?v3) ?v1)) f1)))))
(assert (forall ((?v0 S8) (?v1 S9) (?v2 S8) (?v3 S40)) (=> (= (f42 ?v0 ?v1) f1) (=> (= ?v2 (f78 ?v3 ?v0)) (= (f42 ?v2 (f79 (f80 ?v3) ?v1)) f1)))))
(assert (forall ((?v0 S6) (?v1 S7) (?v2 S8) (?v3 S42)) (=> (= (f33 ?v0 ?v1) f1) (=> (= ?v2 (f81 ?v3 ?v0)) (= (f42 ?v2 (f82 (f83 ?v3) ?v1)) f1)))))
(assert (forall ((?v0 S10) (?v1 S11) (?v2 S8) (?v3 S44)) (=> (= (f13 ?v0 ?v1) f1) (=> (= ?v2 (f84 ?v3 ?v0)) (= (f42 ?v2 (f85 (f86 ?v3) ?v1)) f1)))))
(assert (forall ((?v0 S4) (?v1 S5) (?v2 S2) (?v3 S46)) (=> (= (f48 ?v0 ?v1) f1) (=> (= ?v2 (f87 ?v3 ?v0)) (= (f49 ?v2 (f88 (f89 ?v3) ?v1)) f1)))))
(assert (forall ((?v0 S8) (?v1 S9) (?v2 S2) (?v3 S48)) (=> (= (f42 ?v0 ?v1) f1) (=> (= ?v2 (f90 ?v3 ?v0)) (= (f49 ?v2 (f91 (f92 ?v3) ?v1)) f1)))))
(assert (forall ((?v0 S6) (?v1 S7) (?v2 S2) (?v3 S50)) (=> (= (f33 ?v0 ?v1) f1) (=> (= ?v2 (f93 ?v3 ?v0)) (= (f49 ?v2 (f94 (f95 ?v3) ?v1)) f1)))))
(assert (forall ((?v0 S10) (?v1 S11) (?v2 S2) (?v3 S52)) (=> (= (f13 ?v0 ?v1) f1) (=> (= ?v2 (f96 ?v3 ?v0)) (= (f49 ?v2 (f97 (f98 ?v3) ?v1)) f1)))))
(assert (forall ((?v0 S4) (?v1 S5) (?v2 S4) (?v3 S14)) (=> (= (f48 ?v0 ?v1) f1) (=> (= ?v2 (f20 ?v3 ?v0)) (= (f48 ?v2 (f99 (f100 ?v3) ?v1)) f1)))))
(assert (forall ((?v0 S8) (?v1 S9) (?v2 S4) (?v3 S55)) (=> (= (f42 ?v0 ?v1) f1) (=> (= ?v2 (f101 ?v3 ?v0)) (= (f48 ?v2 (f102 (f103 ?v3) ?v1)) f1)))))
(assert (forall ((?v0 S6) (?v1 S7) (?v2 S4) (?v3 S57)) (=> (= (f33 ?v0 ?v1) f1) (=> (= ?v2 (f104 ?v3 ?v0)) (= (f48 ?v2 (f105 (f106 ?v3) ?v1)) f1)))))
(assert (forall ((?v0 S10) (?v1 S11) (?v2 S17)) (=> (= (f13 ?v0 ?v1) f1) (= (f48 (f27 ?v2 ?v0) (f50 (f51 ?v2) ?v1)) f1))))
(assert (forall ((?v0 S2) (?v1 S3) (?v2 S13)) (=> (= (f49 ?v0 ?v1) f1) (= (f13 (f23 ?v2 ?v0) (f15 (f16 ?v2) ?v1)) f1))))
(assert (forall ((?v0 S4) (?v1 S5) (?v2 S23)) (=> (= (f48 ?v0 ?v1) f1) (= (f13 (f52 ?v2 ?v0) (f53 (f54 ?v2) ?v1)) f1))))
(assert (forall ((?v0 S8) (?v1 S9) (?v2 S25)) (=> (= (f42 ?v0 ?v1) f1) (= (f13 (f55 ?v2 ?v0) (f56 (f57 ?v2) ?v1)) f1))))
(assert (forall ((?v0 S6) (?v1 S7) (?v2 S27)) (=> (= (f33 ?v0 ?v1) f1) (= (f13 (f58 ?v2 ?v0) (f59 (f60 ?v2) ?v1)) f1))))
(assert (forall ((?v0 S10) (?v1 S11) (?v2 S29)) (=> (= (f13 ?v0 ?v1) f1) (= (f13 (f61 ?v2 ?v0) (f62 (f63 ?v2) ?v1)) f1))))
(assert (forall ((?v0 S4) (?v1 S5) (?v2 S19)) (=> (= (f48 ?v0 ?v1) f1) (= (f33 (f34 ?v2 ?v0) (f64 (f65 ?v2) ?v1)) f1))))
(assert (forall ((?v0 S8) (?v1 S9) (?v2 S32)) (=> (= (f42 ?v0 ?v1) f1) (= (f33 (f66 ?v2 ?v0) (f67 (f68 ?v2) ?v1)) f1))))
(assert (forall ((?v0 S6) (?v1 S7) (?v2 S34)) (=> (= (f33 ?v0 ?v1) f1) (= (f33 (f69 ?v2 ?v0) (f70 (f71 ?v2) ?v1)) f1))))
(assert (forall ((?v0 S10) (?v1 S11) (?v2 S36)) (=> (= (f13 ?v0 ?v1) f1) (= (f33 (f72 ?v2 ?v0) (f73 (f74 ?v2) ?v1)) f1))))
(assert (forall ((?v0 S4) (?v1 S5) (?v2 S38)) (=> (= (f48 ?v0 ?v1) f1) (= (f42 (f75 ?v2 ?v0) (f76 (f77 ?v2) ?v1)) f1))))
(assert (forall ((?v0 S8) (?v1 S9) (?v2 S40)) (=> (= (f42 ?v0 ?v1) f1) (= (f42 (f78 ?v2 ?v0) (f79 (f80 ?v2) ?v1)) f1))))
(assert (forall ((?v0 S6) (?v1 S7) (?v2 S42)) (=> (= (f33 ?v0 ?v1) f1) (= (f42 (f81 ?v2 ?v0) (f82 (f83 ?v2) ?v1)) f1))))
(assert (forall ((?v0 S10) (?v1 S11) (?v2 S44)) (=> (= (f13 ?v0 ?v1) f1) (= (f42 (f84 ?v2 ?v0) (f85 (f86 ?v2) ?v1)) f1))))
(assert (forall ((?v0 S4) (?v1 S5) (?v2 S46)) (=> (= (f48 ?v0 ?v1) f1) (= (f49 (f87 ?v2 ?v0) (f88 (f89 ?v2) ?v1)) f1))))
(assert (forall ((?v0 S8) (?v1 S9) (?v2 S48)) (=> (= (f42 ?v0 ?v1) f1) (= (f49 (f90 ?v2 ?v0) (f91 (f92 ?v2) ?v1)) f1))))
(assert (forall ((?v0 S6) (?v1 S7) (?v2 S50)) (=> (= (f33 ?v0 ?v1) f1) (= (f49 (f93 ?v2 ?v0) (f94 (f95 ?v2) ?v1)) f1))))
(assert (forall ((?v0 S10) (?v1 S11) (?v2 S52)) (=> (= (f13 ?v0 ?v1) f1) (= (f49 (f96 ?v2 ?v0) (f97 (f98 ?v2) ?v1)) f1))))
(assert (forall ((?v0 S4) (?v1 S5) (?v2 S14)) (=> (= (f48 ?v0 ?v1) f1) (= (f48 (f20 ?v2 ?v0) (f99 (f100 ?v2) ?v1)) f1))))
(assert (forall ((?v0 S8) (?v1 S9) (?v2 S55)) (=> (= (f42 ?v0 ?v1) f1) (= (f48 (f101 ?v2 ?v0) (f102 (f103 ?v2) ?v1)) f1))))
(assert (forall ((?v0 S6) (?v1 S7) (?v2 S57)) (=> (= (f33 ?v0 ?v1) f1) (= (f48 (f104 ?v2 ?v0) (f105 (f106 ?v2) ?v1)) f1))))
(assert (forall ((?v0 S4) (?v1 S17) (?v2 S11)) (= (= (f48 ?v0 (f50 (f51 ?v1) ?v2)) f1) (exists ((?v3 S10)) (and (= (f13 ?v3 ?v2) f1) (= ?v0 (f27 ?v1 ?v3)))))))
(assert (forall ((?v0 S10) (?v1 S13) (?v2 S3)) (= (= (f13 ?v0 (f15 (f16 ?v1) ?v2)) f1) (exists ((?v3 S2)) (and (= (f49 ?v3 ?v2) f1) (= ?v0 (f23 ?v1 ?v3)))))))
(assert (forall ((?v0 S10) (?v1 S23) (?v2 S5)) (= (= (f13 ?v0 (f53 (f54 ?v1) ?v2)) f1) (exists ((?v3 S4)) (and (= (f48 ?v3 ?v2) f1) (= ?v0 (f52 ?v1 ?v3)))))))
(assert (forall ((?v0 S10) (?v1 S25) (?v2 S9)) (= (= (f13 ?v0 (f56 (f57 ?v1) ?v2)) f1) (exists ((?v3 S8)) (and (= (f42 ?v3 ?v2) f1) (= ?v0 (f55 ?v1 ?v3)))))))
(assert (forall ((?v0 S10) (?v1 S27) (?v2 S7)) (= (= (f13 ?v0 (f59 (f60 ?v1) ?v2)) f1) (exists ((?v3 S6)) (and (= (f33 ?v3 ?v2) f1) (= ?v0 (f58 ?v1 ?v3)))))))
(assert (forall ((?v0 S10) (?v1 S29) (?v2 S11)) (= (= (f13 ?v0 (f62 (f63 ?v1) ?v2)) f1) (exists ((?v3 S10)) (and (= (f13 ?v3 ?v2) f1) (= ?v0 (f61 ?v1 ?v3)))))))
(assert (forall ((?v0 S6) (?v1 S19) (?v2 S5)) (= (= (f33 ?v0 (f64 (f65 ?v1) ?v2)) f1) (exists ((?v3 S4)) (and (= (f48 ?v3 ?v2) f1) (= ?v0 (f34 ?v1 ?v3)))))))
(assert (forall ((?v0 S6) (?v1 S32) (?v2 S9)) (= (= (f33 ?v0 (f67 (f68 ?v1) ?v2)) f1) (exists ((?v3 S8)) (and (= (f42 ?v3 ?v2) f1) (= ?v0 (f66 ?v1 ?v3)))))))
(assert (forall ((?v0 S6) (?v1 S34) (?v2 S7)) (= (= (f33 ?v0 (f70 (f71 ?v1) ?v2)) f1) (exists ((?v3 S6)) (and (= (f33 ?v3 ?v2) f1) (= ?v0 (f69 ?v1 ?v3)))))))
(assert (forall ((?v0 S6) (?v1 S36) (?v2 S11)) (= (= (f33 ?v0 (f73 (f74 ?v1) ?v2)) f1) (exists ((?v3 S10)) (and (= (f13 ?v3 ?v2) f1) (= ?v0 (f72 ?v1 ?v3)))))))
(assert (forall ((?v0 S8) (?v1 S38) (?v2 S5)) (= (= (f42 ?v0 (f76 (f77 ?v1) ?v2)) f1) (exists ((?v3 S4)) (and (= (f48 ?v3 ?v2) f1) (= ?v0 (f75 ?v1 ?v3)))))))
(assert (forall ((?v0 S8) (?v1 S40) (?v2 S9)) (= (= (f42 ?v0 (f79 (f80 ?v1) ?v2)) f1) (exists ((?v3 S8)) (and (= (f42 ?v3 ?v2) f1) (= ?v0 (f78 ?v1 ?v3)))))))
(assert (forall ((?v0 S8) (?v1 S42) (?v2 S7)) (= (= (f42 ?v0 (f82 (f83 ?v1) ?v2)) f1) (exists ((?v3 S6)) (and (= (f33 ?v3 ?v2) f1) (= ?v0 (f81 ?v1 ?v3)))))))
(assert (forall ((?v0 S8) (?v1 S44) (?v2 S11)) (= (= (f42 ?v0 (f85 (f86 ?v1) ?v2)) f1) (exists ((?v3 S10)) (and (= (f13 ?v3 ?v2) f1) (= ?v0 (f84 ?v1 ?v3)))))))
(assert (forall ((?v0 S2) (?v1 S46) (?v2 S5)) (= (= (f49 ?v0 (f88 (f89 ?v1) ?v2)) f1) (exists ((?v3 S4)) (and (= (f48 ?v3 ?v2) f1) (= ?v0 (f87 ?v1 ?v3)))))))
(assert (forall ((?v0 S2) (?v1 S48) (?v2 S9)) (= (= (f49 ?v0 (f91 (f92 ?v1) ?v2)) f1) (exists ((?v3 S8)) (and (= (f42 ?v3 ?v2) f1) (= ?v0 (f90 ?v1 ?v3)))))))
(assert (forall ((?v0 S2) (?v1 S50) (?v2 S7)) (= (= (f49 ?v0 (f94 (f95 ?v1) ?v2)) f1) (exists ((?v3 S6)) (and (= (f33 ?v3 ?v2) f1) (= ?v0 (f93 ?v1 ?v3)))))))
(assert (forall ((?v0 S2) (?v1 S52) (?v2 S11)) (= (= (f49 ?v0 (f97 (f98 ?v1) ?v2)) f1) (exists ((?v3 S10)) (and (= (f13 ?v3 ?v2) f1) (= ?v0 (f96 ?v1 ?v3)))))))
(assert (forall ((?v0 S4) (?v1 S14) (?v2 S5)) (= (= (f48 ?v0 (f99 (f100 ?v1) ?v2)) f1) (exists ((?v3 S4)) (and (= (f48 ?v3 ?v2) f1) (= ?v0 (f20 ?v1 ?v3)))))))
(assert (forall ((?v0 S4) (?v1 S55) (?v2 S9)) (= (= (f48 ?v0 (f102 (f103 ?v1) ?v2)) f1) (exists ((?v3 S8)) (and (= (f42 ?v3 ?v2) f1) (= ?v0 (f101 ?v1 ?v3)))))))
(assert (forall ((?v0 S4) (?v1 S57) (?v2 S7)) (= (= (f48 ?v0 (f105 (f106 ?v1) ?v2)) f1) (exists ((?v3 S6)) (and (= (f33 ?v3 ?v2) f1) (= ?v0 (f104 ?v1 ?v3)))))))
(assert (= f18 (f107 f4)))
(assert (= f44 (f108 f12)))
(assert (= f45 (f109 f8)))
(assert (= f46 (f110 f10)))
(assert (= f47 (f111 f6)))
(assert (forall ((?v0 S10) (?v1 S10)) (= (= (f27 f28 ?v0) (f27 f28 ?v1)) (= ?v0 ?v1))))
(assert (forall ((?v0 S4) (?v1 S4) (?v2 S4) (?v3 S4)) (= (= (f20 (f25 f26 ?v0) ?v1) (f20 (f25 f26 ?v2) ?v3)) (and (= ?v0 ?v2) (= ?v1 ?v3)))))
(assert (forall ((?v0 S10) (?v1 S4) (?v2 S10) (?v3 S4)) (= (= (f20 (f21 f22 ?v0) ?v1) (f20 (f21 f22 ?v2) ?v3)) (and (= ?v0 ?v2) (= ?v1 ?v3)))))
(assert (forall ((?v0 S2) (?v1 S2)) (= (= (f29 f30 ?v0) (f29 f30 ?v1)) (= ?v0 ?v1))))
(assert (forall ((?v0 S2) (?v1 S2)) (= (= (f23 f17 ?v0) (f23 f17 ?v1)) (= ?v0 ?v1))))
(assert (forall ((?v0 S4) (?v1 S17) (?v2 S10)) (=> (= ?v0 (f27 ?v1 ?v2)) (= (f48 ?v0 (f50 (f51 ?v1) f44)) f1))))
(assert (forall ((?v0 S10) (?v1 S13) (?v2 S2)) (=> (= ?v0 (f23 ?v1 ?v2)) (= (f13 ?v0 (f15 (f16 ?v1) f18)) f1))))
(assert (forall ((?v0 S4) (?v1 S57) (?v2 S6)) (=> (= ?v0 (f104 ?v1 ?v2)) (= (f48 ?v0 (f105 (f106 ?v1) f45)) f1))))
(assert (forall ((?v0 S4) (?v1 S55) (?v2 S8)) (=> (= ?v0 (f101 ?v1 ?v2)) (= (f48 ?v0 (f102 (f103 ?v1) f46)) f1))))
(assert (forall ((?v0 S4) (?v1 S14) (?v2 S4)) (=> (= ?v0 (f20 ?v1 ?v2)) (= (f48 ?v0 (f99 (f100 ?v1) f47)) f1))))
(assert (forall ((?v0 S2) (?v1 S52) (?v2 S10)) (=> (= ?v0 (f96 ?v1 ?v2)) (= (f49 ?v0 (f97 (f98 ?v1) f44)) f1))))
(assert (forall ((?v0 S2) (?v1 S50) (?v2 S6)) (=> (= ?v0 (f93 ?v1 ?v2)) (= (f49 ?v0 (f94 (f95 ?v1) f45)) f1))))
(assert (forall ((?v0 S2) (?v1 S48) (?v2 S8)) (=> (= ?v0 (f90 ?v1 ?v2)) (= (f49 ?v0 (f91 (f92 ?v1) f46)) f1))))
(assert (forall ((?v0 S2) (?v1 S46) (?v2 S4)) (=> (= ?v0 (f87 ?v1 ?v2)) (= (f49 ?v0 (f88 (f89 ?v1) f47)) f1))))
(assert (forall ((?v0 S8) (?v1 S44) (?v2 S10)) (=> (= ?v0 (f84 ?v1 ?v2)) (= (f42 ?v0 (f85 (f86 ?v1) f44)) f1))))
(assert (forall ((?v0 S8) (?v1 S42) (?v2 S6)) (=> (= ?v0 (f81 ?v1 ?v2)) (= (f42 ?v0 (f82 (f83 ?v1) f45)) f1))))
(assert (forall ((?v0 S8) (?v1 S40) (?v2 S8)) (=> (= ?v0 (f78 ?v1 ?v2)) (= (f42 ?v0 (f79 (f80 ?v1) f46)) f1))))
(assert (forall ((?v0 S8) (?v1 S38) (?v2 S4)) (=> (= ?v0 (f75 ?v1 ?v2)) (= (f42 ?v0 (f76 (f77 ?v1) f47)) f1))))
(assert (forall ((?v0 S6) (?v1 S36) (?v2 S10)) (=> (= ?v0 (f72 ?v1 ?v2)) (= (f33 ?v0 (f73 (f74 ?v1) f44)) f1))))
(assert (forall ((?v0 S6) (?v1 S34) (?v2 S6)) (=> (= ?v0 (f69 ?v1 ?v2)) (= (f33 ?v0 (f70 (f71 ?v1) f45)) f1))))
(assert (forall ((?v0 S6) (?v1 S32) (?v2 S8)) (=> (= ?v0 (f66 ?v1 ?v2)) (= (f33 ?v0 (f67 (f68 ?v1) f46)) f1))))
(assert (forall ((?v0 S6) (?v1 S19) (?v2 S4)) (=> (= ?v0 (f34 ?v1 ?v2)) (= (f33 ?v0 (f64 (f65 ?v1) f47)) f1))))
(assert (forall ((?v0 S10) (?v1 S29) (?v2 S10)) (=> (= ?v0 (f61 ?v1 ?v2)) (= (f13 ?v0 (f62 (f63 ?v1) f44)) f1))))
(assert (forall ((?v0 S10) (?v1 S27) (?v2 S6)) (=> (= ?v0 (f58 ?v1 ?v2)) (= (f13 ?v0 (f59 (f60 ?v1) f45)) f1))))
(assert (forall ((?v0 S10) (?v1 S25) (?v2 S8)) (=> (= ?v0 (f55 ?v1 ?v2)) (= (f13 ?v0 (f56 (f57 ?v1) f46)) f1))))
(assert (forall ((?v0 S10) (?v1 S23) (?v2 S4)) (=> (= ?v0 (f52 ?v1 ?v2)) (= (f13 ?v0 (f53 (f54 ?v1) f47)) f1))))
(assert (forall ((?v0 S17) (?v1 S10)) (= (f48 (f27 ?v0 ?v1) (f50 (f51 ?v0) f44)) f1)))
(assert (forall ((?v0 S13) (?v1 S2)) (= (f13 (f23 ?v0 ?v1) (f15 (f16 ?v0) f18)) f1)))
(assert (forall ((?v0 S57) (?v1 S6)) (= (f48 (f104 ?v0 ?v1) (f105 (f106 ?v0) f45)) f1)))
(assert (forall ((?v0 S55) (?v1 S8)) (= (f48 (f101 ?v0 ?v1) (f102 (f103 ?v0) f46)) f1)))
(assert (forall ((?v0 S14) (?v1 S4)) (= (f48 (f20 ?v0 ?v1) (f99 (f100 ?v0) f47)) f1)))
(assert (forall ((?v0 S52) (?v1 S10)) (= (f49 (f96 ?v0 ?v1) (f97 (f98 ?v0) f44)) f1)))
(assert (forall ((?v0 S50) (?v1 S6)) (= (f49 (f93 ?v0 ?v1) (f94 (f95 ?v0) f45)) f1)))
(assert (forall ((?v0 S48) (?v1 S8)) (= (f49 (f90 ?v0 ?v1) (f91 (f92 ?v0) f46)) f1)))
(assert (forall ((?v0 S46) (?v1 S4)) (= (f49 (f87 ?v0 ?v1) (f88 (f89 ?v0) f47)) f1)))
(assert (forall ((?v0 S44) (?v1 S10)) (= (f42 (f84 ?v0 ?v1) (f85 (f86 ?v0) f44)) f1)))
(assert (forall ((?v0 S42) (?v1 S6)) (= (f42 (f81 ?v0 ?v1) (f82 (f83 ?v0) f45)) f1)))
(assert (forall ((?v0 S40) (?v1 S8)) (= (f42 (f78 ?v0 ?v1) (f79 (f80 ?v0) f46)) f1)))
(assert (forall ((?v0 S38) (?v1 S4)) (= (f42 (f75 ?v0 ?v1) (f76 (f77 ?v0) f47)) f1)))
(assert (forall ((?v0 S36) (?v1 S10)) (= (f33 (f72 ?v0 ?v1) (f73 (f74 ?v0) f44)) f1)))
(assert (forall ((?v0 S34) (?v1 S6)) (= (f33 (f69 ?v0 ?v1) (f70 (f71 ?v0) f45)) f1)))
(assert (forall ((?v0 S32) (?v1 S8)) (= (f33 (f66 ?v0 ?v1) (f67 (f68 ?v0) f46)) f1)))
(assert (forall ((?v0 S19) (?v1 S4)) (= (f33 (f34 ?v0 ?v1) (f64 (f65 ?v0) f47)) f1)))
(assert (forall ((?v0 S29) (?v1 S10)) (= (f13 (f61 ?v0 ?v1) (f62 (f63 ?v0) f44)) f1)))
(assert (forall ((?v0 S27) (?v1 S6)) (= (f13 (f58 ?v0 ?v1) (f59 (f60 ?v0) f45)) f1)))
(assert (forall ((?v0 S25) (?v1 S8)) (= (f13 (f55 ?v0 ?v1) (f56 (f57 ?v0) f46)) f1)))
(assert (forall ((?v0 S23) (?v1 S4)) (= (f13 (f52 ?v0 ?v1) (f53 (f54 ?v0) f47)) f1)))
(assert (forall ((?v0 S4) (?v1 S4) (?v2 S10)) (not (= (f20 (f25 f26 ?v0) ?v1) (f27 f28 ?v2)))))
(assert (forall ((?v0 S10) (?v1 S4) (?v2 S4)) (not (= (f27 f28 ?v0) (f20 (f25 f26 ?v1) ?v2)))))
(assert (forall ((?v0 S10) (?v1 S4) (?v2 S10)) (not (= (f20 (f21 f22 ?v0) ?v1) (f27 f28 ?v2)))))
(assert (forall ((?v0 S10) (?v1 S10) (?v2 S4)) (not (= (f27 f28 ?v0) (f20 (f21 f22 ?v1) ?v2)))))
(assert (forall ((?v0 S4) (?v1 S4) (?v2 S10) (?v3 S4)) (not (= (f20 (f25 f26 ?v0) ?v1) (f20 (f21 f22 ?v2) ?v3)))))
(assert (forall ((?v0 S2)) (= (= (f3 f18 ?v0) f1) (= f112 f1))))
(assert (forall ((?v0 S10)) (= (= (f11 f44 ?v0) f1) (= f112 f1))))
(assert (forall ((?v0 S6)) (= (= (f7 f45 ?v0) f1) (= f112 f1))))
(assert (forall ((?v0 S8)) (= (= (f9 f46 ?v0) f1) (= f112 f1))))
(assert (forall ((?v0 S4)) (= (= (f5 f47 ?v0) f1) (= f112 f1))))
(assert (forall ((?v0 S10) (?v1 S8)) (=> (not (= (f48 (f27 f28 ?v0) (f113 ?v1)) f1)) (not (= (f13 ?v0 (f15 (f16 f17) f18)) f1)))))
(assert (forall ((?v0 S2)) (= (f48 (f27 f28 (f23 f17 ?v0)) (f114 ?v0)) f1)))
(assert (forall ((?v0 S8) (?v1 S2) (?v2 S2) (?v3 S10) (?v4 S2) (?v5 S10) (?v6 S4)) (let ((?v_1 (f27 f115 ?v3)) (?v_0 (f25 f26 (f29 f30 ?v4))) (?v_2 (f40 ?v0)) (?v_3 (f36 f37 ?v1))) (=> (= (f42 ?v0 f43) f1) (=> (not (= ?v1 f38)) (=> (= (f33 (f34 (f35 (f36 f37 ?v2) ?v1) (f20 (f21 f22 (f23 f17 ?v1)) (f20 (f25 f26 ?v_1) (f20 ?v_0 (f20 (f25 f26 (f27 f28 ?v5)) ?v6))))) ?v_2) f1) (=> (= (f33 (f34 (f35 ?v_3 f38) (f20 (f25 f26 (f29 f30 ?v1)) (f20 ?v_0 ?v_1))) ?v_2) f1) (= (f42 (f78 (f116 f117 (f34 (f35 ?v_3 ?v4) ?v6)) ?v0) f43) f1))))))))
(assert (forall ((?v0 S5)) (=> (forall ((?v1 S4)) (= (f48 ?v1 ?v0) f1)) (= f47 ?v0))))
(assert (forall ((?v0 S3)) (=> (forall ((?v1 S2)) (= (f49 ?v1 ?v0) f1)) (= f18 ?v0))))
(assert (forall ((?v0 S9)) (=> (forall ((?v1 S8)) (= (f42 ?v1 ?v0) f1)) (= f46 ?v0))))
(assert (forall ((?v0 S7)) (=> (forall ((?v1 S6)) (= (f33 ?v1 ?v0) f1)) (= f45 ?v0))))
(assert (forall ((?v0 S11)) (=> (forall ((?v1 S10)) (= (f13 ?v1 ?v0) f1)) (= f44 ?v0))))
(assert (exists ((?v0 S4)) (= (f48 ?v0 f47) f1)))
(assert (exists ((?v0 S2)) (= (f49 ?v0 f18) f1)))
(assert (exists ((?v0 S8)) (= (f42 ?v0 f46) f1)))
(assert (exists ((?v0 S6)) (= (f33 ?v0 f45) f1)))
(assert (exists ((?v0 S10)) (= (f13 ?v0 f44) f1)))
(assert (forall ((?v0 S11) (?v1 S11) (?v2 S17) (?v3 S17)) (=> (= ?v0 ?v1) (=> (forall ((?v4 S10)) (=> (= (f13 ?v4 ?v1) f1) (= (f27 ?v2 ?v4) (f27 ?v3 ?v4)))) (= (f50 (f51 ?v2) ?v0) (f50 (f51 ?v3) ?v1))))))
(assert (forall ((?v0 S3) (?v1 S3) (?v2 S13) (?v3 S13)) (=> (= ?v0 ?v1) (=> (forall ((?v4 S2)) (=> (= (f49 ?v4 ?v1) f1) (= (f23 ?v2 ?v4) (f23 ?v3 ?v4)))) (= (f15 (f16 ?v2) ?v0) (f15 (f16 ?v3) ?v1))))))
(assert (forall ((?v0 S5) (?v1 S5) (?v2 S23) (?v3 S23)) (=> (= ?v0 ?v1) (=> (forall ((?v4 S4)) (=> (= (f48 ?v4 ?v1) f1) (= (f52 ?v2 ?v4) (f52 ?v3 ?v4)))) (= (f53 (f54 ?v2) ?v0) (f53 (f54 ?v3) ?v1))))))
(assert (forall ((?v0 S9) (?v1 S9) (?v2 S25) (?v3 S25)) (=> (= ?v0 ?v1) (=> (forall ((?v4 S8)) (=> (= (f42 ?v4 ?v1) f1) (= (f55 ?v2 ?v4) (f55 ?v3 ?v4)))) (= (f56 (f57 ?v2) ?v0) (f56 (f57 ?v3) ?v1))))))
(assert (forall ((?v0 S7) (?v1 S7) (?v2 S27) (?v3 S27)) (=> (= ?v0 ?v1) (=> (forall ((?v4 S6)) (=> (= (f33 ?v4 ?v1) f1) (= (f58 ?v2 ?v4) (f58 ?v3 ?v4)))) (= (f59 (f60 ?v2) ?v0) (f59 (f60 ?v3) ?v1))))))
(assert (forall ((?v0 S11) (?v1 S11) (?v2 S29) (?v3 S29)) (=> (= ?v0 ?v1) (=> (forall ((?v4 S10)) (=> (= (f13 ?v4 ?v1) f1) (= (f61 ?v2 ?v4) (f61 ?v3 ?v4)))) (= (f62 (f63 ?v2) ?v0) (f62 (f63 ?v3) ?v1))))))
(assert (forall ((?v0 S5) (?v1 S5) (?v2 S19) (?v3 S19)) (=> (= ?v0 ?v1) (=> (forall ((?v4 S4)) (=> (= (f48 ?v4 ?v1) f1) (= (f34 ?v2 ?v4) (f34 ?v3 ?v4)))) (= (f64 (f65 ?v2) ?v0) (f64 (f65 ?v3) ?v1))))))
(assert (forall ((?v0 S9) (?v1 S9) (?v2 S32) (?v3 S32)) (=> (= ?v0 ?v1) (=> (forall ((?v4 S8)) (=> (= (f42 ?v4 ?v1) f1) (= (f66 ?v2 ?v4) (f66 ?v3 ?v4)))) (= (f67 (f68 ?v2) ?v0) (f67 (f68 ?v3) ?v1))))))
(assert (forall ((?v0 S7) (?v1 S7) (?v2 S34) (?v3 S34)) (=> (= ?v0 ?v1) (=> (forall ((?v4 S6)) (=> (= (f33 ?v4 ?v1) f1) (= (f69 ?v2 ?v4) (f69 ?v3 ?v4)))) (= (f70 (f71 ?v2) ?v0) (f70 (f71 ?v3) ?v1))))))
(assert (forall ((?v0 S11) (?v1 S11) (?v2 S36) (?v3 S36)) (=> (= ?v0 ?v1) (=> (forall ((?v4 S10)) (=> (= (f13 ?v4 ?v1) f1) (= (f72 ?v2 ?v4) (f72 ?v3 ?v4)))) (= (f73 (f74 ?v2) ?v0) (f73 (f74 ?v3) ?v1))))))
(assert (forall ((?v0 S5) (?v1 S5) (?v2 S38) (?v3 S38)) (=> (= ?v0 ?v1) (=> (forall ((?v4 S4)) (=> (= (f48 ?v4 ?v1) f1) (= (f75 ?v2 ?v4) (f75 ?v3 ?v4)))) (= (f76 (f77 ?v2) ?v0) (f76 (f77 ?v3) ?v1))))))
(assert (forall ((?v0 S9) (?v1 S9) (?v2 S40) (?v3 S40)) (=> (= ?v0 ?v1) (=> (forall ((?v4 S8)) (=> (= (f42 ?v4 ?v1) f1) (= (f78 ?v2 ?v4) (f78 ?v3 ?v4)))) (= (f79 (f80 ?v2) ?v0) (f79 (f80 ?v3) ?v1))))))
(assert (forall ((?v0 S7) (?v1 S7) (?v2 S42) (?v3 S42)) (=> (= ?v0 ?v1) (=> (forall ((?v4 S6)) (=> (= (f33 ?v4 ?v1) f1) (= (f81 ?v2 ?v4) (f81 ?v3 ?v4)))) (= (f82 (f83 ?v2) ?v0) (f82 (f83 ?v3) ?v1))))))
(assert (forall ((?v0 S11) (?v1 S11) (?v2 S44) (?v3 S44)) (=> (= ?v0 ?v1) (=> (forall ((?v4 S10)) (=> (= (f13 ?v4 ?v1) f1) (= (f84 ?v2 ?v4) (f84 ?v3 ?v4)))) (= (f85 (f86 ?v2) ?v0) (f85 (f86 ?v3) ?v1))))))
(assert (forall ((?v0 S5) (?v1 S5) (?v2 S46) (?v3 S46)) (=> (= ?v0 ?v1) (=> (forall ((?v4 S4)) (=> (= (f48 ?v4 ?v1) f1) (= (f87 ?v2 ?v4) (f87 ?v3 ?v4)))) (= (f88 (f89 ?v2) ?v0) (f88 (f89 ?v3) ?v1))))))
(assert (forall ((?v0 S9) (?v1 S9) (?v2 S48) (?v3 S48)) (=> (= ?v0 ?v1) (=> (forall ((?v4 S8)) (=> (= (f42 ?v4 ?v1) f1) (= (f90 ?v2 ?v4) (f90 ?v3 ?v4)))) (= (f91 (f92 ?v2) ?v0) (f91 (f92 ?v3) ?v1))))))
(assert (forall ((?v0 S7) (?v1 S7) (?v2 S50) (?v3 S50)) (=> (= ?v0 ?v1) (=> (forall ((?v4 S6)) (=> (= (f33 ?v4 ?v1) f1) (= (f93 ?v2 ?v4) (f93 ?v3 ?v4)))) (= (f94 (f95 ?v2) ?v0) (f94 (f95 ?v3) ?v1))))))
(assert (forall ((?v0 S11) (?v1 S11) (?v2 S52) (?v3 S52)) (=> (= ?v0 ?v1) (=> (forall ((?v4 S10)) (=> (= (f13 ?v4 ?v1) f1) (= (f96 ?v2 ?v4) (f96 ?v3 ?v4)))) (= (f97 (f98 ?v2) ?v0) (f97 (f98 ?v3) ?v1))))))
(assert (forall ((?v0 S5) (?v1 S5) (?v2 S14) (?v3 S14)) (=> (= ?v0 ?v1) (=> (forall ((?v4 S4)) (=> (= (f48 ?v4 ?v1) f1) (= (f20 ?v2 ?v4) (f20 ?v3 ?v4)))) (= (f99 (f100 ?v2) ?v0) (f99 (f100 ?v3) ?v1))))))
(assert (forall ((?v0 S9) (?v1 S9) (?v2 S55) (?v3 S55)) (=> (= ?v0 ?v1) (=> (forall ((?v4 S8)) (=> (= (f42 ?v4 ?v1) f1) (= (f101 ?v2 ?v4) (f101 ?v3 ?v4)))) (= (f102 (f103 ?v2) ?v0) (f102 (f103 ?v3) ?v1))))))
(assert (forall ((?v0 S7) (?v1 S7) (?v2 S57) (?v3 S57)) (=> (= ?v0 ?v1) (=> (forall ((?v4 S6)) (=> (= (f33 ?v4 ?v1) f1) (= (f104 ?v2 ?v4) (f104 ?v3 ?v4)))) (= (f105 (f106 ?v2) ?v0) (f105 (f106 ?v3) ?v1))))))
(assert (forall ((?v0 S5) (?v1 S4) (?v2 S10)) (let ((?v_0 (f118 ?v0))) (=> (= (f5 ?v_0 ?v1) f1) (=> (= (f5 ?v0 (f27 f28 ?v2)) f1) (= (f5 ?v_0 (f20 (f21 f22 ?v2) ?v1)) f1))))))
(assert (forall ((?v0 S2) (?v1 S2) (?v2 S4) (?v3 S2) (?v4 S2) (?v5 S4)) (= (= (f34 (f35 (f36 f37 ?v0) ?v1) ?v2) (f34 (f35 (f36 f37 ?v3) ?v4) ?v5)) (and (= ?v0 ?v3) (and (= ?v1 ?v4) (= ?v2 ?v5))))))
(assert (forall ((?v0 S5) (?v1 S4)) (=> (= (f5 ?v0 ?v1) f1) (= (f5 (f118 ?v0) ?v1) f1))))
(assert (forall ((?v0 S4) (?v1 S4) (?v2 S8)) (let ((?v_0 (f113 ?v2))) (=> (= (f48 (f20 (f25 f26 ?v0) ?v1) ?v_0) f1) (=> (=> (= (f48 ?v0 ?v_0) f1) (=> (= (f48 ?v1 ?v_0) f1) false)) false)))))
(assert (forall ((?v0 S5) (?v1 S4) (?v2 S4)) (let ((?v_0 (f118 ?v0))) (=> (= (f5 ?v_0 ?v1) f1) (=> (= (f5 ?v_0 ?v2) f1) (= (f5 ?v_0 (f20 (f25 f26 ?v1) ?v2)) f1))))))
(assert (forall ((?v0 S5) (?v1 S2)) (= (f5 (f118 ?v0) (f29 f30 ?v1)) f1)))
(assert (forall ((?v0 S2) (?v1 S8)) (= (f48 (f27 f28 (f23 f17 ?v0)) (f113 ?v1)) f1)))
(assert (forall ((?v0 S10) (?v1 S10)) (= (= (f27 f115 ?v0) (f27 f115 ?v1)) (= ?v0 ?v1))))
(assert (forall ((?v0 S10) (?v1 S10)) (not (= (f27 f28 ?v0) (f27 f115 ?v1)))))
(assert (forall ((?v0 S10) (?v1 S10)) (not (= (f27 f115 ?v0) (f27 f28 ?v1)))))
(assert (forall ((?v0 S10) (?v1 S11)) (not (= (f48 (f27 f115 ?v0) (f50 (f51 f28) ?v1)) f1))))
(assert (forall ((?v0 S10) (?v1 S4) (?v2 S4)) (not (= (f27 f115 ?v0) (f20 (f25 f26 ?v1) ?v2)))))
(assert (forall ((?v0 S4) (?v1 S4) (?v2 S10)) (not (= (f20 (f25 f26 ?v0) ?v1) (f27 f115 ?v2)))))
(assert (forall ((?v0 S10) (?v1 S10) (?v2 S4)) (not (= (f27 f115 ?v0) (f20 (f21 f22 ?v1) ?v2)))))
(assert (forall ((?v0 S10) (?v1 S4) (?v2 S10)) (not (= (f20 (f21 f22 ?v0) ?v1) (f27 f115 ?v2)))))
(assert (forall ((?v0 S2) (?v1 S10)) (not (= (f29 f30 ?v0) (f27 f115 ?v1)))))
(assert (forall ((?v0 S10) (?v1 S2)) (not (= (f27 f115 ?v0) (f29 f30 ?v1)))))
(assert (forall ((?v0 S4) (?v1 S4) (?v2 S8)) (let ((?v_0 (f113 ?v2))) (=> (= (f48 (f20 (f25 f26 ?v0) ?v1) ?v_0) f1) (and (= (f48 ?v0 ?v_0) f1) (= (f48 ?v1 ?v_0) f1))))))
(assert (forall ((?v0 S2) (?v1 S2) (?v2 S4) (?v3 S8)) (=> (= (f33 (f34 (f35 (f36 f37 ?v0) ?v1) ?v2) (f40 ?v3)) f1) (= (f48 ?v2 (f113 ?v3)) f1))))
(assert (forall ((?v0 S8) (?v1 S10) (?v2 S2) (?v3 S2)) (let ((?v_0 (f27 f115 ?v1))) (=> (= (f42 ?v0 f43) f1) (=> (not (= (f48 ?v_0 (f113 ?v0)) f1)) (= (f42 (f78 (f116 f117 (f34 (f35 (f36 f37 ?v2) f38) (f20 (f25 f26 (f29 f30 ?v2)) (f20 (f25 f26 (f29 f30 ?v3)) ?v_0)))) ?v0) f43) f1))))))
(assert (forall ((?v0 S10) (?v1 S8) (?v2 S2)) (=> (not (= (f48 (f27 f28 ?v0) (f113 ?v1)) f1)) (not (= ?v0 (f23 f17 ?v2))))))
(assert (forall ((?v0 S10) (?v1 S8) (?v2 S2)) (=> (not (= (f48 (f27 f28 ?v0) (f113 ?v1)) f1)) (not (= (f23 f17 ?v2) ?v0)))))
(assert (forall ((?v0 S8) (?v1 S10) (?v2 S2) (?v3 S2) (?v4 S2) (?v5 S10)) (let ((?v_2 (f27 f28 ?v1)) (?v_4 (f29 f30 ?v3)) (?v_1 (f25 f26 (f29 f30 ?v4))) (?v_0 (f27 f115 ?v5))) (let ((?v_3 (f25 f26 ?v_2))) (=> (= (f42 ?v0 f43) f1) (=> (not (= (f48 ?v_2 (f113 ?v0)) f1)) (=> (= (f13 ?v1 f119) f1) (=> (= (f33 (f34 (f35 (f36 f37 ?v2) f38) (f20 (f25 f26 ?v_4) (f20 ?v_1 ?v_0))) (f40 ?v0)) f1) (= (f42 (f78 (f116 f117 (f34 (f35 (f36 f37 f38) ?v3) (f20 (f21 f22 (f23 f17 ?v3)) (f20 (f25 f26 ?v_0) (f20 ?v_1 (f20 ?v_3 (f20 (f21 f22 (f23 f17 ?v4)) (f20 ?v_3 ?v_4)))))))) ?v0) f43) f1)))))))))
(assert (forall ((?v0 S8) (?v1 S10) (?v2 S10) (?v3 S2) (?v4 S2) (?v5 S2)) (let ((?v_0 (f27 f115 ?v1))) (=> (= (f42 ?v0 f43) f1) (=> (not (= (f48 ?v_0 (f113 ?v0)) f1)) (=> (= (f13 ?v2 f119) f1) (=> (= (f33 (f34 (f35 (f36 f37 ?v3) ?v4) (f20 (f21 f22 (f23 f17 ?v4)) (f20 (f25 f26 (f27 f28 ?v2)) (f29 f30 ?v5)))) (f40 ?v0)) f1) (= (f42 (f78 (f116 f117 (f34 (f35 (f36 f37 ?v4) ?v5) (f20 (f21 f22 ?v2) ?v_0))) ?v0) f43) f1))))))))
(check-sat)
(exit)
